sat
(model 
  (define-fun |required(ezcsp__gt(nWeight(3),ezcsp__mn(ezcsp__pl(96,89),89)))| () Bool
    false)
  (define-fun |required(ezcsp__gt(nWeight(3),ezcsp__mn(ezcsp__pl(46,28),28)))| () Bool
    false)
  (define-fun |leafPos(8,6)| () Bool
    true)
  (define-fun |required(ezcsp__gt(nWeight(5),ezcsp__mn(ezcsp__pl(46,28),28)))| () Bool
    false)
  (define-fun |nWeight(6)| () Int
    46)
  (define-fun |required(ezcsp__eq(nWeight(1),84))| () Bool
    false)
  (define-fun |posColor(4,blue)| () Bool
    false)
  (define-fun |nWeight(5)| () Int
    74)
  (define-fun |required(ezcsp__eq(nWeight(3),74))| () Bool
    false)
  (define-fun |leafPos(5,5)| () Bool
    false)
  (define-fun |478| () Bool
    false)
  (define-fun |required(ezcsp__eq(nWeight(7),74))| () Bool
    false)
  (define-fun |leafPos(8,1)| () Bool
    false)
  (define-fun |required(ezcsp__leq(nWeight(2),ezcsp__mn(ezcsp__pl(11,35),11)))| () Bool
    false)
  (define-fun |required(ezcsp__eq(nWeight(1),96))| () Bool
    false)
  (define-fun |required(ezcsp__eq(nWeight(2),46))| () Bool
    false)
  (define-fun |leafPos(3,7)| () Bool
    false)
  (define-fun |458| () Bool
    false)
  (define-fun |required(ezcsp__leq(nWeight(5),ezcsp__mn(ezcsp__pl(19,73),19)))| () Bool
    false)
  (define-fun |required(ezcsp__eq(nWeight(6),94))| () Bool
    false)
  (define-fun |required(ezcsp__eq(nWeight(5),121))| () Bool
    false)
  (define-fun |required(ezcsp__eq(nWeight(4),185))| () Bool
    false)
  (define-fun |required(ezcsp__eq(nWeight(1),131))| () Bool
    false)
  (define-fun |462| () Bool
    false)
  (define-fun |leafPos(7,3)| () Bool
    false)
  (define-fun |leafPos(1,6)| () Bool
    false)
  (define-fun |required(ezcsp__gt(nWeight(5),ezcsp__mn(ezcsp__pl(12,73),12)))| () Bool
    false)
  (define-fun |posColor(6,blue)| () Bool
    false)
  (define-fun |required(ezcsp__gt(nWeight(2),ezcsp__mn(ezcsp__pl(46,28),28)))| () Bool
    false)
  (define-fun |470| () Bool
    false)
  (define-fun |leafPos(4,2)| () Bool
    false)
  (define-fun |required(ezcsp__eq(nWeight(2),121))| () Bool
    false)
  (define-fun |posColor(3,blue)| () Bool
    true)
  (define-fun |posColor(1,green)| () Bool
    false)
  (define-fun |427| () Bool
    false)
  (define-fun |leafPos(7,7)| () Bool
    false)
  (define-fun |required(ezcsp__leq(nWeight(2),ezcsp__mn(ezcsp__pl(46,28),28)))| () Bool
    false)
  (define-fun |required(ezcsp__leq(nWeight(5),ezcsp__mn(ezcsp__pl(36,58),36)))| () Bool
    false)
  (define-fun |required(ezcsp__gt(nWeight(4),ezcsp__mn(ezcsp__pl(19,73),19)))| () Bool
    false)
  (define-fun |required(ezcsp__eq(nWeight(5),74))| () Bool
    true)
  (define-fun |leafPos(5,7)| () Bool
    false)
  (define-fun |required(ezcsp__eq(nWeight(2),185))| () Bool
    false)
  (define-fun |leafPos(3,1)| () Bool
    true)
  (define-fun |required(ezcsp__leq(nWeight(4),ezcsp__mn(ezcsp__pl(96,89),89)))| () Bool
    false)
  (define-fun |required(ezcsp__eq(nWeight(1),74))| () Bool
    false)
  (define-fun |required(ezcsp__gt(nWeight(4),ezcsp__mn(ezcsp__pl(96,89),89)))| () Bool
    false)
  (define-fun |required(ezcsp__leq(nWeight(4),ezcsp__mn(ezcsp__pl(46,28),28)))| () Bool
    false)
  (define-fun |required(ezcsp__leq(nWeight(6),ezcsp__mn(ezcsp__pl(36,58),36)))| () Bool
    false)
  (define-fun |leafPos(2,6)| () Bool
    false)
  (define-fun |required(ezcsp__gt(nWeight(6),ezcsp__mn(ezcsp__pl(96,89),89)))| () Bool
    false)
  (define-fun |required(ezcsp__eq(nWeight(3),94))| () Bool
    false)
  (define-fun |leafPos(1,5)| () Bool
    false)
  (define-fun |leafPos(2,3)| () Bool
    false)
  (define-fun |required(ezcsp__eq(nWeight(7),185))| () Bool
    false)
  (define-fun |required(ezcsp__eq(nWeight(4),ezcsp__pl(nWeight(3),89)))| () Bool
    false)
  (define-fun |required(ezcsp__leq(nWeight(3),ezcsp__mn(ezcsp__pl(11,35),11)))| () Bool
    false)
  (define-fun |446| () Bool
    false)
  (define-fun |required(ezcsp__eq(nWeight(4),ezcsp__pl(nWeight(3),36)))| () Bool
    false)
  (define-fun |posColor(5,red)| () Bool
    false)
  (define-fun |required(ezcsp__leq(nWeight(5),ezcsp__mn(ezcsp__pl(96,89),89)))| () Bool
    false)
  (define-fun |nWeight(3)| () Int
    155)
  (define-fun |required(ezcsp__eq(nWeight(2),74))| () Bool
    false)
  (define-fun |464| () Bool
    false)
  (define-fun |leafPos(7,5)| () Bool
    true)
  (define-fun |461| () Bool
    false)
  (define-fun |required(ezcsp__eq(nWeight(2),85))| () Bool
    false)
  (define-fun |required(ezcsp__gt(nWeight(4),ezcsp__mn(ezcsp__pl(11,35),11)))| () Bool
    false)
  (define-fun |leafPos(4,0)| () Bool
    false)
  (define-fun |required(ezcsp__gt(nWeight(4),ezcsp__mn(ezcsp__pl(48,73),48)))| () Bool
    false)
  (define-fun |required(ezcsp__eq(nWeight(1),46))| () Bool
    false)
  (define-fun |leafPos(6,6)| () Bool
    false)
  (define-fun |required(ezcsp__gt(nWeight(5),ezcsp__mn(ezcsp__pl(48,73),48)))| () Bool
    false)
  (define-fun |required(ezcsp__gt(nWeight(4),ezcsp__mn(ezcsp__pl(36,58),36)))| () Bool
    false)
  (define-fun |required(ezcsp__leq(nWeight(5),ezcsp__mn(ezcsp__pl(11,35),11)))| () Bool
    false)
  (define-fun |posColor(3,red)| () Bool
    false)
  (define-fun |431| () Bool
    false)
  (define-fun |required(ezcsp__eq(nWeight(6),ezcsp__pl(nWeight(5),12)))| () Bool
    false)
  (define-fun |432| () Bool
    false)
  (define-fun |required(ezcsp__leq(nWeight(4),ezcsp__mn(ezcsp__pl(12,73),12)))| () Bool
    false)
  (define-fun |required(ezcsp__eq(nWeight(1),125))| () Bool
    false)
  (define-fun |required(ezcsp__eq(nWeight(7),92))| () Bool
    false)
  (define-fun |required(ezcsp__eq(nWeight(6),ezcsp__pl(nWeight(5),28)))| () Bool
    false)
  (define-fun |required(ezcsp__eq(nWeight(6),185))| () Bool
    false)
  (define-fun |posColor(5,blue)| () Bool
    false)
  (define-fun |leafPos(4,3)| () Bool
    false)
  (define-fun |434| () Bool
    false)
  (define-fun |required(ezcsp__gt(nWeight(6),ezcsp__mn(ezcsp__pl(70,35),35)))| () Bool
    false)
  (define-fun |required(ezcsp__gt(nWeight(1),ezcsp__mn(ezcsp__pl(19,73),19)))| () Bool
    false)
  (define-fun |467| () Bool
    false)
  (define-fun |leafPos(2,7)| () Bool
    true)
  (define-fun |required(ezcsp__eq(nWeight(3),105))| () Bool
    false)
  (define-fun |required(ezcsp__eq(nWeight(1),39))| () Bool
    false)
  (define-fun |required(ezcsp__gt(nWeight(6),ezcsp__mn(ezcsp__pl(12,73),12)))| () Bool
    false)
  (define-fun |required(ezcsp__eq(nWeight(1),159))| () Bool
    false)
  (define-fun |required(ezcsp__leq(nWeight(3),ezcsp__mn(ezcsp__pl(19,73),19)))| () Bool
    false)
  (define-fun |required(ezcsp__eq(nWeight(3),ezcsp__pl(nWeight(2),28)))| () Bool
    false)
  (define-fun |leafPos(2,1)| () Bool
    false)
  (define-fun |leafPos(4,6)| () Bool
    false)
  (define-fun |leafPos(5,0)| () Bool
    false)
  (define-fun |required(ezcsp__leq(nWeight(6),ezcsp__mn(ezcsp__pl(11,35),11)))| () Bool
    false)
  (define-fun |required(ezcsp__eq(nWeight(6),105))| () Bool
    false)
  (define-fun |posColor(2,blue)| () Bool
    true)
  (define-fun |required(ezcsp__leq(nWeight(3),ezcsp__mn(ezcsp__pl(96,89),89)))| () Bool
    false)
  (define-fun |leafPos(7,4)| () Bool
    false)
  (define-fun |required(ezcsp__eq(nWeight(1),89))| () Bool
    false)
  (define-fun |468| () Bool
    false)
  (define-fun |426| () Bool
    false)
  (define-fun |required(ezcsp__eq(nWeight(3),85))| () Bool
    false)
  (define-fun |posColor(2,green)| () Bool
    false)
  (define-fun |428| () Bool
    false)
  (define-fun |required(ezcsp__eq(nWeight(4),105))| () Bool
    false)
  (define-fun |required(ezcsp__leq(nWeight(3),ezcsp__mn(ezcsp__pl(70,35),35)))| () Bool
    false)
  (define-fun |required(ezcsp__eq(nWeight(1),124))| () Bool
    false)
  (define-fun |required(ezcsp__eq(nWeight(3),ezcsp__pl(nWeight(2),36)))| () Bool
    false)
  (define-fun |required(ezcsp__eq(nWeight(3),ezcsp__pl(nWeight(2),11)))| () Bool
    false)
  (define-fun |leafPos(4,5)| () Bool
    false)
  (define-fun |480| () Bool
    false)
  (define-fun |required(ezcsp__eq(nWeight(1),135))| () Bool
    false)
  (define-fun |leafPos(6,7)| () Bool
    false)
  (define-fun |required(ezcsp__leq(nWeight(6),ezcsp__mn(ezcsp__pl(19,73),19)))| () Bool
    false)
  (define-fun |459| () Bool
    false)
  (define-fun |leafPos(6,2)| () Bool
    true)
  (define-fun |leafPos(4,1)| () Bool
    false)
  (define-fun |required(ezcsp__gt(nWeight(1),ezcsp__mn(ezcsp__pl(36,58),36)))| () Bool
    false)
  (define-fun |required(ezcsp__eq(nWeight(2),94))| () Bool
    false)
  (define-fun |required(ezcsp__eq(nWeight(1),137))| () Bool
    false)
  (define-fun |required(ezcsp__eq(nWeight(3),ezcsp__pl(nWeight(2),12)))| () Bool
    false)
  (define-fun |required(ezcsp__leq(nWeight(1),ezcsp__mn(ezcsp__pl(46,28),28)))| () Bool
    false)
  (define-fun |required(ezcsp__eq(nWeight(1),59))| () Bool
    false)
  (define-fun |required(ezcsp__leq(nWeight(1),ezcsp__mn(ezcsp__pl(19,73),19)))| () Bool
    false)
  (define-fun |455| () Bool
    false)
  (define-fun |leafPos(8,5)| () Bool
    false)
  (define-fun |required(ezcsp__eq(nWeight(5),46))| () Bool
    false)
  (define-fun |required(ezcsp__eq(nWeight(1),81))| () Bool
    false)
  (define-fun |required(ezcsp__eq(nWeight(1),107))| () Bool
    false)
  (define-fun |required(ezcsp__eq(nWeight(6),ezcsp__pl(nWeight(5),11)))| () Bool
    false)
  (define-fun |444| () Bool
    false)
  (define-fun |required(ezcsp__gt(nWeight(1),ezcsp__mn(ezcsp__pl(12,73),12)))| () Bool
    false)
  (define-fun |required(ezcsp__eq(nWeight(1),108))| () Bool
    false)
  (define-fun |437| () Bool
    false)
  (define-fun |433| () Bool
    false)
  (define-fun |required(ezcsp__eq(nWeight(3),ezcsp__pl(nWeight(2),48)))| () Bool
    false)
  (define-fun |leafPos(2,5)| () Bool
    false)
  (define-fun |required(ezcsp__gt(nWeight(3),ezcsp__mn(ezcsp__pl(36,58),36)))| () Bool
    true)
  (define-fun |posColor(4,green)| () Bool
    true)
  (define-fun |leafPos(4,7)| () Bool
    false)
  (define-fun |required(ezcsp__leq(nWeight(2),ezcsp__mn(ezcsp__pl(70,35),35)))| () Bool
    false)
  (define-fun |required(ezcsp__leq(nWeight(5),ezcsp__mn(ezcsp__pl(46,28),28)))| () Bool
    false)
  (define-fun |required(ezcsp__eq(nWeight(7),ezcsp__pl(nWeight(6),11)))| () Bool
    false)
  (define-fun |required(ezcsp__eq(nWeight(4),85))| () Bool
    false)
  (define-fun |leafPos(7,0)| () Bool
    false)
  (define-fun |required(ezcsp__eq(nWeight(7),94))| () Bool
    false)
  (define-fun |required(ezcsp__eq(nWeight(5),185))| () Bool
    false)
  (define-fun |required(ezcsp__leq(nWeight(1),ezcsp__mn(ezcsp__pl(70,35),35)))| () Bool
    true)
  (define-fun |required(ezcsp__eq(nWeight(1),100))| () Bool
    false)
  (define-fun |required(ezcsp__eq(nWeight(7),ezcsp__pl(nWeight(6),48)))| () Bool
    true)
  (define-fun |required(ezcsp__gt(nWeight(3),ezcsp__mn(ezcsp__pl(70,35),35)))| () Bool
    false)
  (define-fun |451| () Bool
    false)
  (define-fun |required(ezcsp__eq(nWeight(1),101))| () Bool
    false)
  (define-fun |required(ezcsp__eq(nWeight(2),ezcsp__pl(nWeight(1),19)))| () Bool
    false)
  (define-fun |leafPos(2,4)| () Bool
    false)
  (define-fun |posColor(6,red)| () Bool
    false)
  (define-fun |482| () Bool
    false)
  (define-fun |required(ezcsp__eq(nWeight(2),ezcsp__pl(nWeight(1),89)))| () Bool
    false)
  (define-fun |required(ezcsp__eq(nWeight(1),64))| () Bool
    false)
  (define-fun |required(ezcsp__eq(nWeight(5),105))| () Bool
    false)
  (define-fun |required(ezcsp__gt(nWeight(2),ezcsp__mn(ezcsp__pl(12,73),12)))| () Bool
    false)
  (define-fun |required(ezcsp__gt(nWeight(6),ezcsp__mn(ezcsp__pl(36,58),36)))| () Bool
    false)
  (define-fun |required(ezcsp__leq(nWeight(6),ezcsp__mn(ezcsp__pl(12,73),12)))| () Bool
    false)
  (define-fun |required(ezcsp__eq(nWeight(2),ezcsp__pl(nWeight(1),12)))| () Bool
    false)
  (define-fun |450| () Bool
    false)
  (define-fun |441| () Bool
    false)
  (define-fun |required(ezcsp__eq(nWeight(7),85))| () Bool
    false)
  (define-fun |485| () Bool
    false)
  (define-fun |479| () Bool
    false)
  (define-fun |required(ezcsp__eq(nWeight(4),121))| () Bool
    false)
  (define-fun |430| () Bool
    false)
  (define-fun |required(ezcsp__leq(nWeight(3),ezcsp__mn(ezcsp__pl(46,28),28)))| () Bool
    false)
  (define-fun |required(ezcsp__eq(nWeight(4),92))| () Bool
    false)
  (define-fun |required(ezcsp__eq(nWeight(5),ezcsp__pl(nWeight(4),35)))| () Bool
    false)
  (define-fun |required(ezcsp__eq(nWeight(1),98))| () Bool
    false)
  (define-fun |required(ezcsp__gt(nWeight(2),ezcsp__mn(ezcsp__pl(96,89),89)))| () Bool
    false)
  (define-fun |447| () Bool
    false)
  (define-fun |required(ezcsp__eq(nWeight(1),76))| () Bool
    false)
  (define-fun |required(ezcsp__gt(nWeight(4),ezcsp__mn(ezcsp__pl(46,28),28)))| () Bool
    true)
  (define-fun |leafPos(5,1)| () Bool
    false)
  (define-fun |required(ezcsp__eq(nWeight(5),92))| () Bool
    false)
  (define-fun |required(ezcsp__eq(nWeight(7),ezcsp__pl(nWeight(6),28)))| () Bool
    false)
  (define-fun |posColor(1,blue)| () Bool
    false)
  (define-fun |required(ezcsp__eq(nWeight(7),ezcsp__pl(nWeight(6),35)))| () Bool
    false)
  (define-fun |required(ezcsp__eq(nWeight(5),ezcsp__pl(nWeight(4),28)))| () Bool
    false)
  (define-fun |472| () Bool
    false)
  (define-fun |posColor(1,red)| () Bool
    true)
  (define-fun |required(ezcsp__eq(nWeight(2),ezcsp__pl(nWeight(1),11)))| () Bool
    false)
  (define-fun |leafPos(1,0)| () Bool
    true)
  (define-fun |required(ezcsp__eq(nWeight(1),65))| () Bool
    false)
  (define-fun |required(ezcsp__leq(nWeight(4),ezcsp__mn(ezcsp__pl(70,35),35)))| () Bool
    false)
  (define-fun |required(ezcsp__eq(nWeight(3),46))| () Bool
    false)
  (define-fun |required(ezcsp__gt(nWeight(5),ezcsp__mn(ezcsp__pl(11,35),11)))| () Bool
    true)
  (define-fun |454| () Bool
    false)
  (define-fun |440| () Bool
    false)
  (define-fun |required(ezcsp__eq(nWeight(7),121))| () Bool
    false)
  (define-fun |leafPos(6,3)| () Bool
    false)
  (define-fun |leafPos(7,1)| () Bool
    false)
  (define-fun |required(ezcsp__eq(nWeight(1),22))| () Bool
    false)
  (define-fun |leafPos(8,7)| () Bool
    false)
  (define-fun |required(ezcsp__gt(nWeight(5),ezcsp__mn(ezcsp__pl(19,73),19)))| () Bool
    false)
  (define-fun |leafPos(6,5)| () Bool
    false)
  (define-fun |required(ezcsp__eq(nWeight(4),ezcsp__pl(nWeight(3),35)))| () Bool
    false)
  (define-fun |posColor(7,green)| () Bool
    false)
  (define-fun |required(ezcsp__gt(nWeight(3),ezcsp__mn(ezcsp__pl(12,73),12)))| () Bool
    false)
  (define-fun |leafPos(1,1)| () Bool
    false)
  (define-fun |required(ezcsp__leq(nWeight(2),ezcsp__mn(ezcsp__pl(48,73),48)))| () Bool
    false)
  (define-fun |required(ezcsp__leq(nWeight(4),ezcsp__mn(ezcsp__pl(36,58),36)))| () Bool
    false)
  (define-fun |required(ezcsp__eq(nWeight(6),85))| () Bool
    false)
  (define-fun |required(ezcsp__gt(nWeight(6),ezcsp__mn(ezcsp__pl(46,28),28)))| () Bool
    false)
  (define-fun |476| () Bool
    false)
  (define-fun |477| () Bool
    false)
  (define-fun |leafPos(3,6)| () Bool
    false)
  (define-fun |required(ezcsp__eq(nWeight(7),ezcsp__pl(nWeight(6),89)))| () Bool
    false)
  (define-fun |required(ezcsp__eq(nWeight(6),ezcsp__pl(nWeight(5),48)))| () Bool
    false)
  (define-fun |leafPos(3,5)| () Bool
    false)
  (define-fun |required(ezcsp__gt(nWeight(2),ezcsp__mn(ezcsp__pl(48,73),48)))| () Bool
    false)
  (define-fun |posColor(2,red)| () Bool
    false)
  (define-fun |required(ezcsp__eq(nWeight(7),105))| () Bool
    false)
  (define-fun |required(ezcsp__eq(nWeight(1),54))| () Bool
    false)
  (define-fun |required(ezcsp__eq(nWeight(1),24))| () Bool
    false)
  (define-fun |438| () Bool
    false)
  (define-fun |leafPos(5,2)| () Bool
    false)
  (define-fun |required(ezcsp__eq(nWeight(2),ezcsp__pl(nWeight(1),28)))| () Bool
    false)
  (define-fun |leafPos(4,4)| () Bool
    true)
  (define-fun |required(ezcsp__eq(nWeight(2),ezcsp__pl(nWeight(1),36)))| () Bool
    false)
  (define-fun |required(ezcsp__eq(nWeight(7),ezcsp__pl(nWeight(6),36)))| () Bool
    false)
  (define-fun |required(ezcsp__gt(nWeight(3),ezcsp__mn(ezcsp__pl(11,35),11)))| () Bool
    false)
  (define-fun |required(ezcsp__gt(nWeight(1),ezcsp__mn(ezcsp__pl(48,73),48)))| () Bool
    false)
  (define-fun |required(ezcsp__gt(nWeight(1),ezcsp__mn(ezcsp__pl(46,28),28)))| () Bool
    false)
  (define-fun |required(ezcsp__leq(nWeight(4),ezcsp__mn(ezcsp__pl(19,73),19)))| () Bool
    false)
  (define-fun |required(ezcsp__eq(nWeight(1),185))| () Bool
    false)
  (define-fun |leafPos(3,2)| () Bool
    false)
  (define-fun |required(ezcsp__eq(nWeight(4),46))| () Bool
    false)
  (define-fun |required(ezcsp__leq(nWeight(1),ezcsp__mn(ezcsp__pl(96,89),89)))| () Bool
    false)
  (define-fun |posColor(7,blue)| () Bool
    false)
  (define-fun |required(ezcsp__eq(nWeight(4),ezcsp__pl(nWeight(3),28)))| () Bool
    false)
  (define-fun |leafPos(6,1)| () Bool
    false)
  (define-fun |required(ezcsp__gt(nWeight(6),ezcsp__mn(ezcsp__pl(11,35),11)))| () Bool
    false)
  (define-fun |leafPos(2,0)| () Bool
    false)
  (define-fun |required(ezcsp__eq(nWeight(1),118))| () Bool
    false)
  (define-fun |required(ezcsp__gt(nWeight(2),ezcsp__mn(ezcsp__pl(19,73),19)))| () Bool
    false)
  (define-fun |posColor(7,red)| () Bool
    true)
  (define-fun |posColor(6,green)| () Bool
    true)
  (define-fun |required(ezcsp__eq(nWeight(5),ezcsp__pl(nWeight(4),36)))| () Bool
    false)
  (define-fun |required(ezcsp__eq(nWeight(4),94))| () Bool
    true)
  (define-fun |required(ezcsp__leq(nWeight(1),ezcsp__mn(ezcsp__pl(11,35),11)))| () Bool
    false)
  (define-fun |required(ezcsp__eq(nWeight(1),38))| () Bool
    false)
  (define-fun |required(ezcsp__leq(nWeight(3),ezcsp__mn(ezcsp__pl(12,73),12)))| () Bool
    false)
  (define-fun |435| () Bool
    false)
  (define-fun |452| () Bool
    false)
  (define-fun |required(ezcsp__eq(nWeight(4),74))| () Bool
    false)
  (define-fun |481| () Bool
    true)
  (define-fun |required(ezcsp__eq(nWeight(5),94))| () Bool
    false)
  (define-fun |required(ezcsp__eq(nWeight(3),ezcsp__pl(nWeight(2),35)))| () Bool
    false)
  (define-fun |leafPos(2,2)| () Bool
    false)
  (define-fun |leafPos(3,0)| () Bool
    false)
  (define-fun |required(ezcsp__leq(nWeight(5),ezcsp__mn(ezcsp__pl(12,73),12)))| () Bool
    false)
  (define-fun |484| () Bool
    false)
  (define-fun |457| () Bool
    false)
  (define-fun |required(ezcsp__eq(nWeight(3),121))| () Bool
    false)
  (define-fun |leafPos(8,2)| () Bool
    false)
  (define-fun |required(ezcsp__leq(nWeight(2),ezcsp__mn(ezcsp__pl(19,73),19)))| () Bool
    false)
  (define-fun |leafPos(7,6)| () Bool
    false)
  (define-fun |required(ezcsp__gt(nWeight(2),ezcsp__mn(ezcsp__pl(11,35),11)))| () Bool
    false)
  (define-fun |required(ezcsp__leq(nWeight(6),ezcsp__mn(ezcsp__pl(70,35),35)))| () Bool
    false)
  (define-fun |required(ezcsp__leq(nWeight(4),ezcsp__mn(ezcsp__pl(48,73),48)))| () Bool
    false)
  (define-fun |required(ezcsp__gt(nWeight(1),ezcsp__mn(ezcsp__pl(96,89),89)))| () Bool
    false)
  (define-fun |required(ezcsp__eq(nWeight(5),ezcsp__pl(nWeight(4),11)))| () Bool
    false)
  (define-fun |required(ezcsp__leq(nWeight(2),ezcsp__mn(ezcsp__pl(36,58),36)))| () Bool
    false)
  (define-fun |required(ezcsp__eq(nWeight(7),46))| () Bool
    false)
  (define-fun |required(ezcsp__eq(nWeight(5),ezcsp__pl(nWeight(4),12)))| () Bool
    false)
  (define-fun |required(ezcsp__gt(nWeight(1),ezcsp__mn(ezcsp__pl(70,35),35)))| () Bool
    false)
  (define-fun |required(ezcsp__eq(nWeight(1),132))| () Bool
    false)
  (define-fun |required(ezcsp__eq(nWeight(6),74))| () Bool
    false)
  (define-fun |required(ezcsp__leq(nWeight(2),ezcsp__mn(ezcsp__pl(12,73),12)))| () Bool
    false)
  (define-fun |leafPos(6,4)| () Bool
    false)
  (define-fun |required(ezcsp__leq(nWeight(6),ezcsp__mn(ezcsp__pl(96,89),89)))| () Bool
    false)
  (define-fun |required(ezcsp__eq(nWeight(1),30))| () Bool
    false)
  (define-fun |required(ezcsp__eq(nWeight(6),ezcsp__pl(nWeight(5),36)))| () Bool
    false)
  (define-fun |required(ezcsp__eq(nWeight(1),94))| () Bool
    false)
  (define-fun |leafPos(1,2)| () Bool
    false)
  (define-fun |required(ezcsp__eq(nWeight(3),ezcsp__pl(nWeight(2),89)))| () Bool
    true)
  (define-fun |required(ezcsp__eq(nWeight(6),46))| () Bool
    true)
  (define-fun |required(ezcsp__gt(nWeight(1),ezcsp__mn(ezcsp__pl(11,35),11)))| () Bool
    false)
  (define-fun |required(ezcsp__eq(nWeight(4),ezcsp__pl(nWeight(3),11)))| () Bool
    false)
  (define-fun |nWeight(1)| () Int
    31)
  (define-fun |required(ezcsp__eq(nWeight(6),121))| () Bool
    false)
  (define-fun |required(ezcsp__eq(nWeight(2),ezcsp__pl(nWeight(1),48)))| () Bool
    false)
  (define-fun |required(ezcsp__eq(nWeight(4),ezcsp__pl(nWeight(3),12)))| () Bool
    false)
  (define-fun |required(ezcsp__gt(nWeight(6),ezcsp__mn(ezcsp__pl(48,73),48)))| () Bool
    false)
  (define-fun |required(ezcsp__eq(nWeight(1),57))| () Bool
    false)
  (define-fun |required(ezcsp__leq(nWeight(3),ezcsp__mn(ezcsp__pl(36,58),36)))| () Bool
    false)
  (define-fun |required(ezcsp__eq(nWeight(1),71))| () Bool
    false)
  (define-fun |442| () Bool
    false)
  (define-fun |469| () Bool
    false)
  (define-fun |required(ezcsp__gt(nWeight(2),ezcsp__mn(ezcsp__pl(36,58),36)))| () Bool
    false)
  (define-fun |453| () Bool
    false)
  (define-fun |439| () Bool
    false)
  (define-fun |leafPos(1,3)| () Bool
    false)
  (define-fun |443| () Bool
    false)
  (define-fun |473| () Bool
    false)
  (define-fun |leafPos(3,4)| () Bool
    false)
  (define-fun |leafPos(8,3)| () Bool
    false)
  (define-fun |required(ezcsp__eq(nWeight(1),105))| () Bool
    false)
  (define-fun |nWeight(7)| () Int
    94)
  (define-fun |required(ezcsp__eq(nWeight(4),ezcsp__pl(nWeight(3),48)))| () Bool
    false)
  (define-fun |leafPos(5,3)| () Bool
    true)
  (define-fun |460| () Bool
    false)
  (define-fun |required(ezcsp__gt(nWeight(4),ezcsp__mn(ezcsp__pl(12,73),12)))| () Bool
    false)
  (define-fun |required(ezcsp__gt(nWeight(6),ezcsp__mn(ezcsp__pl(19,73),19)))| () Bool
    false)
  (define-fun |required(ezcsp__eq(nWeight(2),105))| () Bool
    false)
  (define-fun |456| () Bool
    false)
  (define-fun |required(ezcsp__eq(nWeight(7),ezcsp__pl(nWeight(6),19)))| () Bool
    false)
  (define-fun |required(ezcsp__gt(nWeight(2),ezcsp__mn(ezcsp__pl(70,35),35)))| () Bool
    false)
  (define-fun |445| () Bool
    true)
  (define-fun |required(ezcsp__eq(nWeight(1),121))| () Bool
    false)
  (define-fun |required(ezcsp__eq(nWeight(4),ezcsp__pl(nWeight(3),19)))| () Bool
    false)
  (define-fun |required(ezcsp__eq(nWeight(1),31))| () Bool
    true)
  (define-fun |required(ezcsp__eq(nWeight(1),92))| () Bool
    false)
  (define-fun |required(ezcsp__eq(nWeight(6),ezcsp__pl(nWeight(5),19)))| () Bool
    false)
  (define-fun |required(ezcsp__leq(nWeight(1),ezcsp__mn(ezcsp__pl(12,73),12)))| () Bool
    false)
  (define-fun |required(ezcsp__eq(nWeight(6),ezcsp__pl(nWeight(5),89)))| () Bool
    false)
  (define-fun |448| () Bool
    false)
  (define-fun |required(ezcsp__eq(nWeight(2),ezcsp__pl(nWeight(1),35)))| () Bool
    true)
  (define-fun |required(ezcsp__leq(nWeight(3),ezcsp__mn(ezcsp__pl(48,73),48)))| () Bool
    false)
  (define-fun |leafPos(5,4)| () Bool
    false)
  (define-fun |required(ezcsp__eq(nWeight(1),60))| () Bool
    false)
  (define-fun |required(ezcsp__eq(nWeight(6),92))| () Bool
    false)
  (define-fun |leafPos(1,7)| () Bool
    false)
  (define-fun |leafPos(1,4)| () Bool
    false)
  (define-fun |required(ezcsp__eq(nWeight(1),82))| () Bool
    false)
  (define-fun |required(ezcsp__eq(nWeight(5),ezcsp__pl(nWeight(4),19)))| () Bool
    false)
  (define-fun |required(ezcsp__eq(nWeight(1),55))| () Bool
    false)
  (define-fun |483| () Bool
    false)
  (define-fun |474| () Bool
    false)
  (define-fun |required(ezcsp__gt(nWeight(4),ezcsp__mn(ezcsp__pl(70,35),35)))| () Bool
    false)
  (define-fun |required(ezcsp__leq(nWeight(5),ezcsp__mn(ezcsp__pl(48,73),48)))| () Bool
    false)
  (define-fun |required(ezcsp__eq(nWeight(1),106))| () Bool
    false)
  (define-fun |required(ezcsp__eq(nWeight(5),ezcsp__pl(nWeight(4),89)))| () Bool
    false)
  (define-fun |required(ezcsp__eq(nWeight(5),ezcsp__pl(nWeight(4),48)))| () Bool
    false)
  (define-fun |471| () Bool
    false)
  (define-fun |required(ezcsp__eq(nWeight(1),47))| () Bool
    false)
  (define-fun |required(ezcsp__leq(nWeight(6),ezcsp__mn(ezcsp__pl(48,73),48)))| () Bool
    true)
  (define-fun |466| () Bool
    false)
  (define-fun |436| () Bool
    false)
  (define-fun |required(ezcsp__leq(nWeight(1),ezcsp__mn(ezcsp__pl(36,58),36)))| () Bool
    false)
  (define-fun |required(ezcsp__gt(nWeight(3),ezcsp__mn(ezcsp__pl(48,73),48)))| () Bool
    false)
  (define-fun |leafPos(6,0)| () Bool
    false)
  (define-fun |leafPos(7,2)| () Bool
    false)
  (define-fun |required(ezcsp__leq(nWeight(1),ezcsp__mn(ezcsp__pl(48,73),48)))| () Bool
    false)
  (define-fun |required(ezcsp__eq(nWeight(3),92))| () Bool
    false)
  (define-fun |required(ezcsp__eq(nWeight(1),23))| () Bool
    false)
  (define-fun |required(ezcsp__eq(nWeight(1),40))| () Bool
    false)
  (define-fun |required(ezcsp__eq(nWeight(1),58))| () Bool
    false)
  (define-fun |posColor(3,green)| () Bool
    false)
  (define-fun |475| () Bool
    false)
  (define-fun |required(ezcsp__gt(nWeight(5),ezcsp__mn(ezcsp__pl(70,35),35)))| () Bool
    false)
  (define-fun |required(ezcsp__eq(nWeight(3),185))| () Bool
    false)
  (define-fun |required(ezcsp__leq(nWeight(4),ezcsp__mn(ezcsp__pl(11,35),11)))| () Bool
    false)
  (define-fun |465| () Bool
    false)
  (define-fun |449| () Bool
    false)
  (define-fun |required(ezcsp__gt(nWeight(3),ezcsp__mn(ezcsp__pl(19,73),19)))| () Bool
    false)
  (define-fun |leafPos(8,0)| () Bool
    false)
  (define-fun |required(ezcsp__leq(nWeight(5),ezcsp__mn(ezcsp__pl(70,35),35)))| () Bool
    false)
  (define-fun |required(ezcsp__gt(nWeight(5),ezcsp__mn(ezcsp__pl(96,89),89)))| () Bool
    false)
  (define-fun |posColor(5,green)| () Bool
    true)
  (define-fun |required(ezcsp__eq(nWeight(1),83))| () Bool
    false)
  (define-fun |leafPos(8,4)| () Bool
    false)
  (define-fun |required(ezcsp__eq(nWeight(1),85))| () Bool
    false)
  (define-fun |required(ezcsp__eq(nWeight(1),72))| () Bool
    false)
  (define-fun |leafPos(3,3)| () Bool
    false)
  (define-fun |required(ezcsp__eq(nWeight(1),48))| () Bool
    false)
  (define-fun |posColor(4,red)| () Bool
    false)
  (define-fun |required(ezcsp__eq(nWeight(3),ezcsp__pl(nWeight(2),19)))| () Bool
    false)
  (define-fun |leafPos(5,6)| () Bool
    false)
  (define-fun |required(ezcsp__eq(nWeight(1),115))| () Bool
    false)
  (define-fun |required(ezcsp__eq(nWeight(1),67))| () Bool
    false)
  (define-fun |required(ezcsp__eq(nWeight(6),ezcsp__pl(nWeight(5),35)))| () Bool
    false)
  (define-fun |required(ezcsp__eq(nWeight(2),92))| () Bool
    false)
  (define-fun |required(ezcsp__eq(nWeight(7),ezcsp__pl(nWeight(6),12)))| () Bool
    false)
  (define-fun |429| () Bool
    false)
  (define-fun |required(ezcsp__leq(nWeight(6),ezcsp__mn(ezcsp__pl(46,28),28)))| () Bool
    false)
  (define-fun |required(ezcsp__leq(nWeight(2),ezcsp__mn(ezcsp__pl(96,89),89)))| () Bool
    true)
  (define-fun |required(ezcsp__eq(nWeight(1),144))| () Bool
    false)
  (define-fun |required(ezcsp__gt(nWeight(5),ezcsp__mn(ezcsp__pl(36,58),36)))| () Bool
    false)
  (define-fun |nWeight(4)| () Int
    94)
  (define-fun |required(ezcsp__eq(nWeight(5),85))| () Bool
    false)
  (define-fun |463| () Bool
    false)
  (define-fun |nWeight(2)| () Int
    66)
  (define-fun |425| () Bool
    true)
  (define-fun |label_order(nWeight(1),1)| () Bool
    true)
  (define-fun |label_order(nWeight(2),1)| () Bool
    true)
  (define-fun |label_order(nWeight(3),1)| () Bool
    true)
  (define-fun |label_order(nWeight(4),1)| () Bool
    true)
  (define-fun |label_order(nWeight(5),1)| () Bool
    true)
  (define-fun |label_order(nWeight(6),1)| () Bool
    true)
  (define-fun |label_order(nWeight(7),1)| () Bool
    true)
  (define-fun |required(ezcsp__sum(list(nWeight,1),ezcsp__leq,560))| () Bool
    true)
  (define-fun |172| () Bool
    true)
  (define-fun |171| () Bool
    true)
  (define-fun |167| () Bool
    true)
  (define-fun |166| () Bool
    true)
  (define-fun |162| () Bool
    true)
  (define-fun |161| () Bool
    true)
  (define-fun |157| () Bool
    true)
  (define-fun |156| () Bool
    true)
  (define-fun |152| () Bool
    true)
  (define-fun |151| () Bool
    true)
  (define-fun |147| () Bool
    true)
  (define-fun |146| () Bool
    true)
  (define-fun |139| () Bool
    true)
  (define-fun |138| () Bool
    true)
  (define-fun |129| () Bool
    true)
  (define-fun |128| () Bool
    true)
  (define-fun |119| () Bool
    true)
  (define-fun |118| () Bool
    true)
  (define-fun |109| () Bool
    true)
  (define-fun |108| () Bool
    true)
  (define-fun |99| () Bool
    true)
  (define-fun |98| () Bool
    true)
  (define-fun |89| () Bool
    true)
  (define-fun |88| () Bool
    true)
  (define-fun |79| () Bool
    true)
  (define-fun |78| () Bool
    true)
  (define-fun |69| () Bool
    false)
  (define-fun |68| () Bool
    true)
  (define-fun |67| () Bool
    true)
  (define-fun |location(7)| () Bool
    true)
  (define-fun |location(6)| () Bool
    true)
  (define-fun |location(5)| () Bool
    true)
  (define-fun |location(4)| () Bool
    true)
  (define-fun |location(3)| () Bool
    true)
  (define-fun |location(2)| () Bool
    true)
  (define-fun |location(1)| () Bool
    true)
  (define-fun |leafCost(5,89)| () Bool
    true)
  (define-fun |leafCost(6,35)| () Bool
    true)
  (define-fun |leafCost(7,28)| () Bool
    true)
  (define-fun |leafCost(1,19)| () Bool
    true)
  (define-fun |leafCost(2,48)| () Bool
    true)
  (define-fun |leafCost(3,12)| () Bool
    true)
  (define-fun |leafCost(4,36)| () Bool
    true)
  (define-fun |leafCost(8,11)| () Bool
    true)
  (define-fun |cspvar(nWeight(1),0,560)| () Bool
    true)
  (define-fun |cspvar(nWeight(2),0,560)| () Bool
    true)
  (define-fun |cspvar(nWeight(3),0,560)| () Bool
    true)
  (define-fun |cspvar(nWeight(4),0,560)| () Bool
    true)
  (define-fun |cspvar(nWeight(5),0,560)| () Bool
    true)
  (define-fun |cspvar(nWeight(6),0,560)| () Bool
    true)
  (define-fun |cspvar(nWeight(7),0,560)| () Bool
    true)
  (define-fun |coloredPos(7)| () Bool
    true)
  (define-fun |coloredPos(6)| () Bool
    true)
  (define-fun |coloredPos(5)| () Bool
    true)
  (define-fun |coloredPos(4)| () Bool
    true)
  (define-fun |coloredPos(3)| () Bool
    true)
  (define-fun |coloredPos(2)| () Bool
    true)
  (define-fun |coloredPos(1)| () Bool
    true)
  (define-fun |leaf(1)| () Bool
    true)
  (define-fun |leaf(2)| () Bool
    true)
  (define-fun |leaf(3)| () Bool
    true)
  (define-fun |leaf(4)| () Bool
    true)
  (define-fun |leaf(5)| () Bool
    true)
  (define-fun |leaf(6)| () Bool
    true)
  (define-fun |leaf(7)| () Bool
    true)
  (define-fun |leaf(8)| () Bool
    true)
  (define-fun |max_total_weight(560)| () Bool
    true)
  (define-fun |num(8)| () Bool
    true)
  (define-fun |innerNode(7)| () Bool
    true)
  (define-fun |innerNode(6)| () Bool
    true)
  (define-fun |innerNode(5)| () Bool
    true)
  (define-fun |innerNode(4)| () Bool
    true)
  (define-fun |innerNode(3)| () Bool
    true)
  (define-fun |innerNode(2)| () Bool
    true)
  (define-fun |innerNode(1)| () Bool
    true)
  (define-fun |leafWeightCardinality(8,11,35)| () Bool
    true)
  (define-fun |leafWeightCardinality(7,46,28)| () Bool
    true)
  (define-fun |leafWeightCardinality(6,70,35)| () Bool
    true)
  (define-fun |leafWeightCardinality(5,96,89)| () Bool
    true)
  (define-fun |leafWeightCardinality(4,36,58)| () Bool
    true)
  (define-fun |leafWeightCardinality(3,12,73)| () Bool
    true)
  (define-fun |leafWeightCardinality(2,48,73)| () Bool
    true)
  (define-fun |leafWeightCardinality(1,19,73)| () Bool
    true)
  (define-fun |location(0)| () Bool
    true)
  (define-fun |color(green)| () Bool
    true)
  (define-fun |color(blue)| () Bool
    true)
  (define-fun |color(red)| () Bool
    true)
)
